nbGenes = 10;
preference = [[0 28 63 53 61 86 25 55 98 44 ]
[72 0 39 80 15 33 94 94 70 84 ]
[37 61 0 50 17 88 31 6 8 92 ]
[47 20 50 0 47 70 31 28 0 86 ]
[39 85 83 53 0 82 85 26 79 49 ]
[14 67 12 30 18 0 50 95 70 24 ]
[75 6 69 69 15 50 0 40 56 15 ]
[45 6 94 72 74 5 60 0 98 31 ]
[2 30 92 100 21 30 44 2 0 26 ]
[56 16 8 14 51 76 85 69 74 0 ]
];
